proyfinal/src/viki/013/andrea/andrea-localstore/experimentInOfficeAgust.take6/worker_6/92b2d409-fd70-4dd8-9de6-78c9e8df3234.als.cnf.out
Reading from standard input... Use '--help' for help.
============================[ Problem Statistics ]=============================
|                                                                             |
|  Number of variables:         87638                                         |
|  Number of clauses:          161767                                         |
|  Parse time:                   0.04 s                                       |
|                                                                             |
============================[ Search Statistics ]==============================
| Conflicts |          ORIGINAL         |          LEARNT          | Progress |
|           |    Vars  Clauses Literals |    Limit  Clauses Lit/Cl |          |
===============================================================================
|       100 |   65311   115791   288812 |    42456      100     12 | 25.476 % |
|       250 |   65311   115791   288812 |    46702      250     39 | 25.476 % |
|       475 |   59189   115747   288722 |    51372      473     63 | 32.462 % |
|       812 |   58933    95344   238386 |    56509      784     51 | 32.754 % |
|      1318 |   58895    95163   237962 |    62160     1255     67 | 32.797 % |
|      2077 |   58723    94943   237459 |    68376     2008     58 | 32.994 % |
|      3216 |   58723    94509   236396 |    75214     3146     76 | 32.994 % |
|      4924 |   58056    92088   230590 |    82736     4440     91 | 33.755 % |
|      7486 |   58042    92026   230442 |    91009     7001     88 | 33.771 % |
|     11330 |   57305    89404   223983 |   100110    10481     86 | 34.612 % |
|     17096 |   56751    87452   219244 |   110121    16078     85 | 35.244 % |
===============================================================================
restarts              : 70
conflicts             : 20413          (7147 /sec)
decisions             : 86945          (0.00 % random) (30442 /sec)
propagations          : 30664956       (10736838 /sec)
conflict literals     : 1619309        (43.05 % deleted)
Memory used           : 45.32 MB
CPU time              : 2.85605 s

INDETERMINATE
